p cnf 21 51
a 3 5 0
e 1 2 4 6 7 8 9 10 11 12 13 14 15 16 17 18 19 20 21 0
-1 2 -3 0
1 -2 -3 0
-1 -2 3 0
1 2 3 0
-4 5 -6 0
4 -5 -6 0
-4 -5 6 0
4 5 6 0
-7 3 0
-7 6 0
-3 -6 7 0
9 -8 0
9 -2 0
8 2 -9 0
10 7 0
10 9 0
-7 -9 -10 0
11 -1 0
11 -1 0
1 -11 0
12 8 -13 0
-12 -8 -13 0
12 -8 13 0
-12 8 13 0
14 -2 -15 0
-14 2 -15 0
14 2 15 0
-14 -2 15 0
-15 16 -17 0
15 -16 -17 0
-15 -16 17 0
15 16 17 0
18 15 0
18 17 0
-15 -17 -18 0
13 -18 -19 0
-13 18 -19 0
13 18 19 0
-13 -18 19 0
-20 11 0
-20 -19 0
-11 19 20 0
21 10 0
21 -20 0
-10 20 -21 0
13 20 2 -8 3 4 -16 0
13 16 3 0
10 7 11 -15 0
14 13 -16 -8 -3 -17 0
1 -8 12 -15 -21 16 0
21 0
